p cnf 200 1110
-101 -6 0
-101 36 0
-101 -33 0
-101 58 0
-101 -84 0
-101 -15 0
-101 -42 0
-101 30 0
-101 91 0
-101 -19 0
101 6 -36 33 -58 84 15 42 -30 -91 19 0
-102 20 0
-102 30 0
-102 58 0
-102 -13 0
-102 47 0
-102 -52 0
-102 -16 0
-102 6 0
-102 -5 0
-102 34 0
102 -20 -30 -58 13 -47 52 16 -6 5 -34 0
-103 100 0
-103 -47 0
-103 33 0
-103 -82 0
-103 80 0
-103 65 0
-103 99 0
-103 -42 0
-103 38 0
-103 -54 0
103 -100 47 -33 82 -80 -65 -99 42 -38 54 0
-104 13 0
-104 28 0
-104 30 0
-104 89 0
-104 37 0
-104 -73 0
-104 -93 0
-104 -58 0
-104 40 0
-104 -78 0
104 -13 -28 -30 -89 -37 73 93 58 -40 78 0
-105 -86 0
-105 39 0
-105 -56 0
-105 58 0
-105 72 0
-105 -60 0
-105 -10 0
-105 -9 0
-105 -82 0
-105 -55 0
105 86 -39 56 -58 -72 60 10 9 82 55 0
-106 -37 0
-106 11 0
-106 45 0
-106 -24 0
-106 88 0
-106 53 0
-106 -13 0
-106 -58 0
-106 -3 0
-106 95 0
106 37 -11 -45 24 -88 -53 13 58 3 -95 0
-107 -76 0
-107 -23 0
-107 6 0
-107 -7 0
-107 -85 0
-107 52 0
-107 44 0
-107 64 0
-107 86 0
-107 38 0
107 76 23 -6 7 85 -52 -44 -64 -86 -38 0
-108 29 0
-108 40 0
-108 37 0
-108 -49 0
-108 95 0
-108 85 0
-108 -86 0
-108 88 0
-108 -32 0
-108 12 0
108 -29 -40 -37 49 -95 -85 86 -88 32 -12 0
-109 -95 0
-109 22 0
-109 -26 0
-109 88 0
-109 -66 0
-109 14 0
-109 -90 0
-109 -59 0
-109 -50 0
-109 -80 0
109 95 -22 26 -88 66 -14 90 59 50 80 0
-110 5 0
-110 -87 0
-110 -82 0
-110 -94 0
-110 -49 0
-110 -2 0
-110 -52 0
-110 43 0
-110 -56 0
-110 -18 0
110 -5 87 82 94 49 2 52 -43 56 18 0
101 102 103 104 105 106 107 108 109 110 0
-111 46 0
-111 15 0
-111 -44 0
-111 -24 0
-111 -96 0
-111 -92 0
-111 74 0
-111 -86 0
-111 -91 0
-111 -22 0
111 -46 -15 44 24 96 92 -74 86 91 22 0
-112 -37 0
-112 -20 0
-112 -43 0
-112 -36 0
-112 -19 0
-112 -83 0
-112 10 0
-112 -8 0
-112 -38 0
-112 74 0
112 37 20 43 36 19 83 -10 8 38 -74 0
-113 -27 0
-113 75 0
-113 -95 0
-113 66 0
-113 52 0
-113 15 0
-113 84 0
-113 3 0
-113 -85 0
-113 -71 0
113 27 -75 95 -66 -52 -15 -84 -3 85 71 0
-114 23 0
-114 88 0
-114 -77 0
-114 -69 0
-114 -24 0
-114 43 0
-114 -80 0
-114 55 0
-114 -10 0
-114 -99 0
114 -23 -88 77 69 24 -43 80 -55 10 99 0
-115 -15 0
-115 -37 0
-115 -66 0
-115 75 0
-115 85 0
-115 -84 0
-115 2 0
-115 -9 0
-115 89 0
-115 45 0
115 15 37 66 -75 -85 84 -2 9 -89 -45 0
-116 19 0
-116 68 0
-116 -1 0
-116 26 0
-116 75 0
-116 32 0
-116 -76 0
-116 64 0
-116 -38 0
-116 89 0
116 -19 -68 1 -26 -75 -32 76 -64 38 -89 0
-117 88 0
-117 -51 0
-117 -37 0
-117 56 0
-117 57 0
-117 -93 0
-117 82 0
-117 52 0
-117 99 0
-117 62 0
117 -88 51 37 -56 -57 93 -82 -52 -99 -62 0
-118 -93 0
-118 54 0
-118 87 0
-118 65 0
-118 73 0
-118 9 0
-118 67 0
-118 -100 0
-118 -43 0
-118 -10 0
118 93 -54 -87 -65 -73 -9 -67 100 43 10 0
-119 29 0
-119 96 0
-119 38 0
-119 -21 0
-119 -67 0
-119 30 0
-119 -4 0
-119 77 0
-119 53 0
-119 -50 0
119 -29 -96 -38 21 67 -30 4 -77 -53 50 0
-120 79 0
-120 35 0
-120 -8 0
-120 88 0
-120 -13 0
-120 75 0
-120 52 0
-120 -6 0
-120 -58 0
-120 85 0
120 -79 -35 8 -88 13 -75 -52 6 58 -85 0
111 112 113 114 115 116 117 118 119 120 0
-121 -37 0
-121 -64 0
-121 94 0
-121 -89 0
-121 -25 0
-121 -33 0
-121 11 0
-121 -81 0
-121 84 0
-121 -63 0
121 37 64 -94 89 25 33 -11 81 -84 63 0
-122 38 0
-122 92 0
-122 -7 0
-122 86 0
-122 -76 0
-122 -27 0
-122 -66 0
-122 -81 0
-122 50 0
-122 -9 0
122 -38 -92 7 -86 76 27 66 81 -50 9 0
-123 77 0
-123 66 0
-123 -99 0
-123 -67 0
-123 -14 0
-123 -46 0
-123 35 0
-123 -44 0
-123 48 0
-123 2 0
123 -77 -66 99 67 14 46 -35 44 -48 -2 0
-124 -21 0
-124 -70 0
-124 17 0
-124 66 0
-124 -62 0
-124 -14 0
-124 -73 0
-124 6 0
-124 -51 0
-124 27 0
124 21 70 -17 -66 62 14 73 -6 51 -27 0
-125 67 0
-125 95 0
-125 45 0
-125 -84 0
-125 -87 0
-125 -30 0
-125 8 0
-125 -53 0
-125 22 0
-125 29 0
125 -67 -95 -45 84 87 30 -8 53 -22 -29 0
-126 87 0
-126 66 0
-126 75 0
-126 56 0
-126 -58 0
-126 -55 0
-126 33 0
-126 -64 0
-126 -68 0
-126 84 0
126 -87 -66 -75 -56 58 55 -33 64 68 -84 0
-127 34 0
-127 87 0
-127 -80 0
-127 -81 0
-127 -5 0
-127 97 0
-127 -44 0
-127 75 0
-127 36 0
-127 40 0
127 -34 -87 80 81 5 -97 44 -75 -36 -40 0
-128 -92 0
-128 -97 0
-128 -98 0
-128 -21 0
-128 -95 0
-128 31 0
-128 -62 0
-128 -12 0
-128 78 0
-128 -14 0
128 92 97 98 21 95 -31 62 12 -78 14 0
-129 2 0
-129 59 0
-129 39 0
-129 -58 0
-129 100 0
-129 62 0
-129 -67 0
-129 -38 0
-129 -52 0
-129 -8 0
129 -2 -59 -39 58 -100 -62 67 38 52 8 0
-130 -55 0
-130 59 0
-130 -75 0
-130 1 0
-130 -2 0
-130 -24 0
-130 -89 0
-130 -10 0
-130 -4 0
-130 -50 0
130 55 -59 75 -1 2 24 89 10 4 50 0
121 122 123 124 125 126 127 128 129 130 0
-131 -70 0
-131 -71 0
-131 -74 0
-131 -91 0
-131 42 0
-131 49 0
-131 -53 0
-131 99 0
-131 51 0
-131 1 0
131 70 71 74 91 -42 -49 53 -99 -51 -1 0
-132 -47 0
-132 -49 0
-132 -34 0
-132 -58 0
-132 -57 0
-132 51 0
-132 -79 0
-132 40 0
-132 -6 0
-132 -44 0
132 47 49 34 58 57 -51 79 -40 6 44 0
-133 44 0
-133 2 0
-133 -57 0
-133 41 0
-133 -6 0
-133 18 0
-133 86 0
-133 -93 0
-133 35 0
-133 96 0
133 -44 -2 57 -41 6 -18 -86 93 -35 -96 0
-134 -86 0
-134 -81 0
-134 -55 0
-134 -47 0
-134 -46 0
-134 -71 0
-134 -41 0
-134 2 0
-134 51 0
-134 -35 0
134 86 81 55 47 46 71 41 -2 -51 35 0
-135 -39 0
-135 -68 0
-135 -15 0
-135 -29 0
-135 -70 0
-135 -59 0
-135 -61 0
-135 64 0
-135 -37 0
-135 57 0
135 39 68 15 29 70 59 61 -64 37 -57 0
-136 -57 0
-136 22 0
-136 78 0
-136 73 0
-136 56 0
-136 -9 0
-136 -33 0
-136 34 0
-136 -14 0
-136 -86 0
136 57 -22 -78 -73 -56 9 33 -34 14 86 0
-137 78 0
-137 -36 0
-137 54 0
-137 -61 0
-137 -11 0
-137 -56 0
-137 -4 0
-137 27 0
-137 83 0
-137 -92 0
137 -78 36 -54 61 11 56 4 -27 -83 92 0
-138 -99 0
-138 -74 0
-138 48 0
-138 -68 0
-138 -30 0
-138 96 0
-138 -29 0
-138 78 0
-138 -98 0
-138 24 0
138 99 74 -48 68 30 -96 29 -78 98 -24 0
-139 -68 0
-139 -50 0
-139 58 0
-139 -11 0
-139 61 0
-139 -98 0
-139 74 0
-139 92 0
-139 32 0
-139 75 0
139 68 50 -58 11 -61 98 -74 -92 -32 -75 0
-140 80 0
-140 -63 0
-140 18 0
-140 -5 0
-140 61 0
-140 -25 0
-140 -72 0
-140 -90 0
-140 40 0
-140 54 0
140 -80 63 -18 5 -61 25 72 90 -40 -54 0
131 132 133 134 135 136 137 138 139 140 0
-141 -36 0
-141 77 0
-141 -71 0
-141 95 0
-141 -10 0
-141 2 0
-141 64 0
-141 46 0
-141 -33 0
-141 22 0
141 36 -77 71 -95 10 -2 -64 -46 33 -22 0
-142 -36 0
-142 55 0
-142 -51 0
-142 74 0
-142 27 0
-142 -66 0
-142 -83 0
-142 -16 0
-142 -39 0
-142 -7 0
142 36 -55 51 -74 -27 66 83 16 39 7 0
-143 -74 0
-143 60 0
-143 -65 0
-143 -22 0
-143 85 0
-143 43 0
-143 37 0
-143 71 0
-143 -56 0
-143 23 0
143 74 -60 65 22 -85 -43 -37 -71 56 -23 0
-144 -97 0
-144 99 0
-144 -24 0
-144 -29 0
-144 82 0
-144 48 0
-144 -98 0
-144 76 0
-144 66 0
-144 -21 0
144 97 -99 24 29 -82 -48 98 -76 -66 21 0
-145 81 0
-145 32 0
-145 -26 0
-145 -87 0
-145 7 0
-145 92 0
-145 -77 0
-145 60 0
-145 -63 0
-145 86 0
145 -81 -32 26 87 -7 -92 77 -60 63 -86 0
-146 -31 0
-146 99 0
-146 -44 0
-146 95 0
-146 79 0
-146 54 0
-146 49 0
-146 -48 0
-146 92 0
-146 -86 0
146 31 -99 44 -95 -79 -54 -49 48 -92 86 0
-147 -14 0
-147 53 0
-147 19 0
-147 22 0
-147 85 0
-147 13 0
-147 -15 0
-147 -68 0
-147 -90 0
-147 32 0
147 14 -53 -19 -22 -85 -13 15 68 90 -32 0
-148 87 0
-148 22 0
-148 -40 0
-148 3 0
-148 43 0
-148 62 0
-148 95 0
-148 -91 0
-148 -78 0
-148 -5 0
148 -87 -22 40 -3 -43 -62 -95 91 78 5 0
-149 -56 0
-149 82 0
-149 -9 0
-149 35 0
-149 -10 0
-149 -23 0
-149 -90 0
-149 -65 0
-149 -36 0
-149 -53 0
149 56 -82 9 -35 10 23 90 65 36 53 0
-150 -66 0
-150 53 0
-150 92 0
-150 -81 0
-150 67 0
-150 97 0
-150 -82 0
-150 -75 0
-150 -78 0
-150 8 0
150 66 -53 -92 81 -67 -97 82 75 78 -8 0
141 142 143 144 145 146 147 148 149 150 0
-151 -87 0
-151 -71 0
-151 -90 0
-151 -70 0
-151 -96 0
-151 -64 0
-151 86 0
-151 -18 0
-151 89 0
-151 27 0
151 87 71 90 70 96 64 -86 18 -89 -27 0
-152 -93 0
-152 -82 0
-152 58 0
-152 34 0
-152 3 0
-152 -1 0
-152 -92 0
-152 -16 0
-152 -50 0
-152 96 0
152 93 82 -58 -34 -3 1 92 16 50 -96 0
-153 6 0
-153 57 0
-153 -60 0
-153 40 0
-153 24 0
-153 55 0
-153 -38 0
-153 50 0
-153 26 0
-153 2 0
153 -6 -57 60 -40 -24 -55 38 -50 -26 -2 0
-154 58 0
-154 -89 0
-154 13 0
-154 -65 0
-154 -46 0
-154 -93 0
-154 -1 0
-154 -30 0
-154 27 0
-154 75 0
154 -58 89 -13 65 46 93 1 30 -27 -75 0
-155 24 0
-155 65 0
-155 66 0
-155 -23 0
-155 -69 0
-155 -93 0
-155 -34 0
-155 -72 0
-155 -85 0
-155 -80 0
155 -24 -65 -66 23 69 93 34 72 85 80 0
-156 -83 0
-156 -71 0
-156 -98 0
-156 95 0
-156 -35 0
-156 -91 0
-156 30 0
-156 92 0
-156 73 0
-156 1 0
156 83 71 98 -95 35 91 -30 -92 -73 -1 0
-157 8 0
-157 -50 0
-157 9 0
-157 -90 0
-157 -38 0
-157 -51 0
-157 40 0
-157 -52 0
-157 -15 0
-157 -49 0
157 -8 50 -9 90 38 51 -40 52 15 49 0
-158 -85 0
-158 32 0
-158 -10 0
-158 -88 0
-158 -18 0
-158 -46 0
-158 41 0
-158 89 0
-158 -23 0
-158 -95 0
158 85 -32 10 88 18 46 -41 -89 23 95 0
-159 23 0
-159 -42 0
-159 -2 0
-159 -49 0
-159 -18 0
-159 78 0
-159 -69 0
-159 46 0
-159 41 0
-159 33 0
159 -23 42 2 49 18 -78 69 -46 -41 -33 0
-160 -93 0
-160 -56 0
-160 -74 0
-160 -46 0
-160 9 0
-160 -78 0
-160 -68 0
-160 47 0
-160 4 0
-160 18 0
160 93 56 74 46 -9 78 68 -47 -4 -18 0
151 152 153 154 155 156 157 158 159 160 0
-161 85 0
-161 -21 0
-161 16 0
-161 -76 0
-161 -96 0
-161 -43 0
-161 18 0
-161 48 0
-161 -25 0
-161 -15 0
161 -85 21 -16 76 96 43 -18 -48 25 15 0
-162 18 0
-162 4 0
-162 -37 0
-162 29 0
-162 -79 0
-162 40 0
-162 -5 0
-162 -51 0
-162 74 0
-162 -9 0
162 -18 -4 37 -29 79 -40 5 51 -74 9 0
-163 58 0
-163 -76 0
-163 -17 0
-163 73 0
-163 83 0
-163 -80 0
-163 -9 0
-163 62 0
-163 -33 0
-163 -30 0
163 -58 76 17 -73 -83 80 9 -62 33 30 0
-164 -100 0
-164 35 0
-164 -6 0
-164 88 0
-164 -59 0
-164 -49 0
-164 -5 0
-164 -94 0
-164 -73 0
-164 46 0
164 100 -35 6 -88 59 49 5 94 73 -46 0
-165 79 0
-165 -10 0
-165 82 0
-165 58 0
-165 44 0
-165 5 0
-165 97 0
-165 -24 0
-165 -66 0
-165 16 0
165 -79 10 -82 -58 -44 -5 -97 24 66 -16 0
-166 -78 0
-166 69 0
-166 -81 0
-166 -68 0
-166 -3 0
-166 -25 0
-166 -60 0
-166 -30 0
-166 38 0
-166 -39 0
166 78 -69 81 68 3 25 60 30 -38 39 0
-167 62 0
-167 -54 0
-167 -5 0
-167 -73 0
-167 26 0
-167 56 0
-167 81 0
-167 -53 0
-167 -30 0
-167 -10 0
167 -62 54 5 73 -26 -56 -81 53 30 10 0
-168 -35 0
-168 81 0
-168 -48 0
-168 -63 0
-168 -89 0
-168 79 0
-168 31 0
-168 46 0
-168 -65 0
-168 -76 0
168 35 -81 48 63 89 -79 -31 -46 65 76 0
-169 35 0
-169 87 0
-169 100 0
-169 17 0
-169 -80 0
-169 36 0
-169 -28 0
-169 41 0
-169 42 0
-169 69 0
169 -35 -87 -100 -17 80 -36 28 -41 -42 -69 0
-170 6 0
-170 -40 0
-170 -39 0
-170 -68 0
-170 -9 0
-170 -54 0
-170 55 0
-170 49 0
-170 76 0
-170 -20 0
170 -6 40 39 68 9 54 -55 -49 -76 20 0
161 162 163 164 165 166 167 168 169 170 0
-171 37 0
-171 11 0
-171 -54 0
-171 32 0
-171 41 0
-171 -10 0
-171 16 0
-171 -7 0
-171 -27 0
-171 -12 0
171 -37 -11 54 -32 -41 10 -16 7 27 12 0
-172 95 0
-172 -86 0
-172 -77 0
-172 17 0
-172 5 0
-172 -70 0
-172 67 0
-172 91 0
-172 -59 0
-172 -80 0
172 -95 86 77 -17 -5 70 -67 -91 59 80 0
-173 53 0
-173 90 0
-173 -84 0
-173 3 0
-173 -80 0
-173 -85 0
-173 -95 0
-173 63 0
-173 89 0
-173 42 0
173 -53 -90 84 -3 80 85 95 -63 -89 -42 0
-174 36 0
-174 -10 0
-174 -15 0
-174 -33 0
-174 19 0
-174 -25 0
-174 -44 0
-174 17 0
-174 67 0
-174 -94 0
174 -36 10 15 33 -19 25 44 -17 -67 94 0
-175 73 0
-175 -72 0
-175 24 0
-175 -25 0
-175 -89 0
-175 15 0
-175 -69 0
-175 18 0
-175 13 0
-175 -92 0
175 -73 72 -24 25 89 -15 69 -18 -13 92 0
-176 -78 0
-176 56 0
-176 31 0
-176 42 0
-176 -94 0
-176 68 0
-176 33 0
-176 19 0
-176 65 0
-176 -74 0
176 78 -56 -31 -42 94 -68 -33 -19 -65 74 0
-177 -6 0
-177 93 0
-177 -67 0
-177 58 0
-177 5 0
-177 48 0
-177 -35 0
-177 -84 0
-177 4 0
-177 25 0
177 6 -93 67 -58 -5 -48 35 84 -4 -25 0
-178 72 0
-178 37 0
-178 30 0
-178 -54 0
-178 99 0
-178 79 0
-178 61 0
-178 -15 0
-178 -6 0
-178 -84 0
178 -72 -37 -30 54 -99 -79 -61 15 6 84 0
-179 -12 0
-179 57 0
-179 -10 0
-179 43 0
-179 -65 0
-179 -22 0
-179 58 0
-179 36 0
-179 -95 0
-179 -99 0
179 12 -57 10 -43 65 22 -58 -36 95 99 0
-180 93 0
-180 72 0
-180 44 0
-180 -61 0
-180 -83 0
-180 -2 0
-180 -100 0
-180 -88 0
-180 -80 0
-180 -99 0
180 -93 -72 -44 61 83 2 100 88 80 99 0
171 172 173 174 175 176 177 178 179 180 0
-181 -71 0
-181 50 0
-181 89 0
-181 48 0
-181 -10 0
-181 72 0
-181 1 0
-181 93 0
-181 85 0
-181 -86 0
181 71 -50 -89 -48 10 -72 -1 -93 -85 86 0
-182 64 0
-182 -84 0
-182 -25 0
-182 27 0
-182 14 0
-182 -22 0
-182 18 0
-182 -49 0
-182 94 0
-182 -70 0
182 -64 84 25 -27 -14 22 -18 49 -94 70 0
-183 -11 0
-183 21 0
-183 -44 0
-183 -13 0
-183 29 0
-183 -68 0
-183 -55 0
-183 -51 0
-183 -52 0
-183 95 0
183 11 -21 44 13 -29 68 55 51 52 -95 0
-184 -31 0
-184 24 0
-184 17 0
-184 -75 0
-184 -15 0
-184 -47 0
-184 72 0
-184 25 0
-184 -91 0
-184 86 0
184 31 -24 -17 75 15 47 -72 -25 91 -86 0
-185 -83 0
-185 55 0
-185 95 0
-185 -31 0
-185 -28 0
-185 4 0
-185 -94 0
-185 -71 0
-185 -42 0
-185 32 0
185 83 -55 -95 31 28 -4 94 71 42 -32 0
-186 67 0
-186 7 0
-186 -61 0
-186 92 0
-186 -99 0
-186 -90 0
-186 -25 0
-186 -14 0
-186 -49 0
-186 -12 0
186 -67 -7 61 -92 99 90 25 14 49 12 0
-187 79 0
-187 -94 0
-187 -72 0
-187 -57 0
-187 39 0
-187 -50 0
-187 -75 0
-187 -86 0
-187 90 0
-187 27 0
187 -79 94 72 57 -39 50 75 86 -90 -27 0
-188 52 0
-188 82 0
-188 -9 0
-188 53 0
-188 -96 0
-188 25 0
-188 -55 0
-188 86 0
-188 32 0
-188 100 0
188 -52 -82 9 -53 96 -25 55 -86 -32 -100 0
-189 -15 0
-189 47 0
-189 -35 0
-189 -39 0
-189 19 0
-189 57 0
-189 -93 0
-189 65 0
-189 -69 0
-189 -88 0
189 15 -47 35 39 -19 -57 93 -65 69 88 0
-190 -21 0
-190 -68 0
-190 22 0
-190 -87 0
-190 -3 0
-190 -53 0
-190 -65 0
-190 70 0
-190 -78 0
-190 15 0
190 21 68 -22 87 3 53 65 -70 78 -15 0
181 182 183 184 185 186 187 188 189 190 0
-191 -16 0
-191 20 0
-191 10 0
-191 -5 0
-191 39 0
-191 19 0
-191 93 0
-191 38 0
-191 27 0
-191 49 0
191 16 -20 -10 5 -39 -19 -93 -38 -27 -49 0
-192 -17 0
-192 -24 0
-192 -8 0
-192 75 0
-192 -22 0
-192 6 0
-192 15 0
-192 -37 0
-192 79 0
-192 97 0
192 17 24 8 -75 22 -6 -15 37 -79 -97 0
-193 -92 0
-193 -86 0
-193 52 0
-193 61 0
-193 -96 0
-193 -21 0
-193 -100 0
-193 -97 0
-193 -42 0
-193 -33 0
193 92 86 -52 -61 96 21 100 97 42 33 0
-194 7 0
-194 10 0
-194 -17 0
-194 81 0
-194 -44 0
-194 60 0
-194 -100 0
-194 -72 0
-194 -3 0
-194 -43 0
194 -7 -10 17 -81 44 -60 100 72 3 43 0
-195 -21 0
-195 -53 0
-195 43 0
-195 -15 0
-195 -58 0
-195 16 0
-195 -22 0
-195 -11 0
-195 7 0
-195 -27 0
195 21 53 -43 15 58 -16 22 11 -7 27 0
-196 24 0
-196 -70 0
-196 -29 0
-196 89 0
-196 43 0
-196 -85 0
-196 -31 0
-196 -42 0
-196 61 0
-196 -97 0
196 -24 70 29 -89 -43 85 31 42 -61 97 0
-197 -13 0
-197 96 0
-197 99 0
-197 23 0
-197 67 0
-197 63 0
-197 83 0
-197 -10 0
-197 -46 0
-197 22 0
197 13 -96 -99 -23 -67 -63 -83 10 46 -22 0
-198 -35 0
-198 -74 0
-198 82 0
-198 -47 0
-198 -4 0
-198 -92 0
-198 17 0
-198 -10 0
-198 -15 0
-198 56 0
198 35 74 -82 47 4 92 -17 10 15 -56 0
-199 -26 0
-199 -98 0
-199 -59 0
-199 -45 0
-199 10 0
-199 -85 0
-199 88 0
-199 44 0
-199 -83 0
-199 -24 0
199 26 98 59 45 -10 85 -88 -44 83 24 0
-200 76 0
-200 52 0
-200 -83 0
-200 -81 0
-200 -18 0
-200 -62 0
-200 -57 0
-200 3 0
-200 86 0
-200 23 0
200 -76 -52 83 81 18 62 57 -3 -86 -23 0
191 192 193 194 195 196 197 198 199 200 0
